param MAXWORK := 32;

param:
TNAME: TWORK :=
'alpha.pm' 180
'alpha.pf' 20
'beta.pm' 260
'beta.pf' 20
'india.pm' 520
'india.pf' 100
'juliet.e' 40
'kilo.e' 80
'mike.e' 40
'november.e' 40
'oscar.e' 60
'oscar.pe' 60
'oscar.pm' 280
'oscar.pf' 40
;

set TSCOPE['alpha.pm'] :=
3 4 7 8 9 10 11 14 15 16 17 18 21 22 23 24 25 28 29 30 31 32 35 36 37 38 39 42 43 44 45 46 49 50 51 52 53 56 57 58 59 60 63 64 65 66 67 70 71 72
73 74 77 78 79 80 81 84 85 86 87 88 91 92
;

set TSCOPE['alpha.pf'] :=
93 94 95 98 99 100 101 102 105 106 107 108 109 112 113 114 115 116 119 120 121 123
;

set TSCOPE['beta.pm'] :=
3 4 7 8 9 10 11 14 15 16 17 18 21 22 23 24 25 28 29 30 31 32 35 36 37 38 39 42 43 44 45 46 49 50 51 52 53 56 57 58 59 60 63 64 65 66 67 70 71 72
73 74 77 78 79 80 81 84 85 86 87 88 91 92 93 94 95 98 99 100 101 102 105 106 107 108 109 112 113 114 115 116 119 120 121 123 126 127 128 129 130 133 134 135 136 137 140 141 142 143
144 147 148 149 150 151 154 155 156 157 158 161 162 163 164 165 168 169 170 171 172
;

set TSCOPE['beta.pf'] :=
175 176 177 178 179 182 183 184 185 186 189 190 191 192 193 196 197 198 199 200 203 204 205 206 207 210 211 212 213 214 217 218
;

set TSCOPE['india.pm'] :=
3 4 7 8 9 10 11 14 15 16 17 18 21 22 23 24 25 28 29 30 31 32 35 36 37 38 39 42 43 44 45 46 49 50 51 52 53 56 57 58 59 60 63 64 65 66 67 70 71 72
73 74 77 78 79 80 81 84 85 86 87 88 91 92 93 94 95 98 99 100 101 102 105 106 107 108 109 112 113 114 115 116 119 120 121 123 126 127 128 129 130 133 134 135 136 137 140 141 142 143
144 147 148 149 150 151 154 155 156 157 158 161 162 163 164 165 168 169 170 171 172 175 176 177 178 179 182 183 184 185 186 189 190 191 192 193 196 197 198 199 200 203 204 205 206 207 210 211 212 213
214 217 218 219 220 221 224 225 226 227 228 231 232 233 234 235 238 239 240 241 242 245 246 247 248 249 252 253 254 255 256 259 260 261 262 263 266 267 268 269 270 273 274 275
;

set TSCOPE['india.pf'] :=
276 277 280 281 282 283 284 287 288 289 290 291 294 295 296 297 298 301 302 303 304 305
;

set TSCOPE['juliet.e'] :=
42 43 44 45 46 49 50 51 52 53 56 57 58 59
;

set TSCOPE['kilo.e'] :=
63 64 65 66 67 70 71 72 73 74 77 78 79 80 81 84
;

set TSCOPE['mike.e'] :=
101 102 105 106 107 108 109
;

set TSCOPE['november.e'] :=
147 148 149 150 151 154 155 156 157 158 161 162 163 164 165
;

set TSCOPE['oscar.e'] :=
177 178 179 182 183 184 185 186 189 190 191
;

set TSCOPE['oscar.pe'] :=
177 178 179 182 183 184 185 186 189 190 191
;

set TSCOPE['oscar.pm'] :=
192 193 196 197 198 199 200 203 204 205 206 207 210 211 212 213 214 217 218 219 220 221 224 225 226 227 228 231 232 233 234 235 238 239 240 241 242 245 246 247 248 249 252 253 254 255 256 259 260 261
262 263 266 267 268 269 270 273 274 275 276 277 280 281 282 283 284 287 288 289 290 291 294 295 296 297 298 301 302 303 304 305 308 309 310 311 312 315 316 317 318 319 322 323 324 325 326 329 330 331
332 333 336 337 338 339 340 343 344 345 346 347 350 351 352 353 354 357 358 359 360 361 364 365
;

set TSCOPE['oscar.pf'] :=
366 367 368 371 372 373 374 375 378 379 380 381 382 385 386 387 388 389 392 393 394 395 396
;

set ENAME :=
'PM.Daniel'
;

set ASSIGN :=
'PM.Daniel' 'alpha.pm'
'PM.Daniel' 'alpha.pf'
'PM.Daniel' 'beta.pm'
'PM.Daniel' 'beta.pf'
'PM.Daniel' 'india.pm'
'PM.Daniel' 'india.pf'
'PM.Daniel' 'oscar.pe'
'PM.Daniel' 'oscar.pm'
'PM.Daniel' 'oscar.pf'
'PM.Daniel' 'juliet.e'
'PM.Daniel' 'kilo.e'
'PM.Daniel' 'mike.e'
'PM.Daniel' 'november.e'
'PM.Daniel' 'oscar.e'
;

param:
XBID: XBL XBU :=
'PM.Daniel' 'alpha.pf' 93 0.0 1.0
'PM.Daniel' 'alpha.pf' 94 0.0 1.0
'PM.Daniel' 'alpha.pf' 95 0.0 1.0
'PM.Daniel' 'alpha.pf' 98 0.0 1.0
'PM.Daniel' 'alpha.pf' 99 0.0 1.0
'PM.Daniel' 'alpha.pf' 100 0.0 1.0
'PM.Daniel' 'alpha.pf' 101 0.0 1.0
'PM.Daniel' 'alpha.pf' 102 0.0 1.0
'PM.Daniel' 'alpha.pf' 105 0.0 1.0
'PM.Daniel' 'alpha.pf' 106 0.0 1.0
'PM.Daniel' 'alpha.pf' 107 0.0 1.0
'PM.Daniel' 'alpha.pf' 108 0.0 1.0
'PM.Daniel' 'alpha.pf' 109 0.0 1.0
'PM.Daniel' 'alpha.pf' 112 0.0 1.0
'PM.Daniel' 'alpha.pf' 113 0.0 1.0
'PM.Daniel' 'alpha.pf' 114 0.0 1.0
'PM.Daniel' 'alpha.pf' 115 0.0 1.0
'PM.Daniel' 'alpha.pf' 116 0.0 1.0
'PM.Daniel' 'alpha.pf' 119 0.0 1.0
'PM.Daniel' 'alpha.pf' 120 0.0 1.0
'PM.Daniel' 'alpha.pf' 121 0.0 1.0
'PM.Daniel' 'alpha.pf' 123 0.0 1.0
'PM.Daniel' 'alpha.pm' 3 0.0 3.0
'PM.Daniel' 'alpha.pm' 4 0.0 3.0
'PM.Daniel' 'alpha.pm' 7 0.0 3.0
'PM.Daniel' 'alpha.pm' 8 0.0 3.0
'PM.Daniel' 'alpha.pm' 9 0.0 3.0
'PM.Daniel' 'alpha.pm' 10 0.0 3.0
'PM.Daniel' 'alpha.pm' 11 0.0 3.0
'PM.Daniel' 'alpha.pm' 14 0.0 3.0
'PM.Daniel' 'alpha.pm' 15 0.0 3.0
'PM.Daniel' 'alpha.pm' 16 0.0 3.0
'PM.Daniel' 'alpha.pm' 17 0.0 3.0
'PM.Daniel' 'alpha.pm' 18 0.0 3.0
'PM.Daniel' 'alpha.pm' 21 0.0 3.0
'PM.Daniel' 'alpha.pm' 22 0.0 3.0
'PM.Daniel' 'alpha.pm' 23 0.0 3.0
'PM.Daniel' 'alpha.pm' 24 0.0 3.0
'PM.Daniel' 'alpha.pm' 25 0.0 3.0
'PM.Daniel' 'alpha.pm' 28 0.0 3.0
'PM.Daniel' 'alpha.pm' 29 0.0 3.0
'PM.Daniel' 'alpha.pm' 30 0.0 3.0
'PM.Daniel' 'alpha.pm' 31 0.0 3.0
'PM.Daniel' 'alpha.pm' 32 0.0 3.0
'PM.Daniel' 'alpha.pm' 35 0.0 3.0
'PM.Daniel' 'alpha.pm' 36 0.0 3.0
'PM.Daniel' 'alpha.pm' 37 0.0 3.0
'PM.Daniel' 'alpha.pm' 38 0.0 3.0
'PM.Daniel' 'alpha.pm' 39 0.0 3.0
'PM.Daniel' 'alpha.pm' 42 0.0 3.0
'PM.Daniel' 'alpha.pm' 43 0.0 3.0
'PM.Daniel' 'alpha.pm' 44 0.0 3.0
'PM.Daniel' 'alpha.pm' 45 0.0 3.0
'PM.Daniel' 'alpha.pm' 46 0.0 3.0
'PM.Daniel' 'alpha.pm' 49 0.0 3.0
'PM.Daniel' 'alpha.pm' 50 0.0 3.0
'PM.Daniel' 'alpha.pm' 51 0.0 3.0
'PM.Daniel' 'alpha.pm' 52 0.0 3.0
'PM.Daniel' 'alpha.pm' 53 0.0 3.0
'PM.Daniel' 'alpha.pm' 56 0.0 3.0
'PM.Daniel' 'alpha.pm' 57 0.0 3.0
'PM.Daniel' 'alpha.pm' 58 0.0 3.0
'PM.Daniel' 'alpha.pm' 59 0.0 3.0
'PM.Daniel' 'alpha.pm' 60 0.0 3.0
'PM.Daniel' 'alpha.pm' 63 0.0 3.0
'PM.Daniel' 'alpha.pm' 64 0.0 3.0
'PM.Daniel' 'alpha.pm' 65 0.0 3.0
'PM.Daniel' 'alpha.pm' 66 0.0 3.0
'PM.Daniel' 'alpha.pm' 67 0.0 3.0
'PM.Daniel' 'alpha.pm' 70 0.0 3.0
'PM.Daniel' 'alpha.pm' 71 0.0 3.0
'PM.Daniel' 'alpha.pm' 72 0.0 3.0
'PM.Daniel' 'alpha.pm' 73 0.0 3.0
'PM.Daniel' 'alpha.pm' 74 0.0 3.0
'PM.Daniel' 'alpha.pm' 77 0.0 3.0
'PM.Daniel' 'alpha.pm' 78 0.0 3.0
'PM.Daniel' 'alpha.pm' 79 0.0 3.0
'PM.Daniel' 'alpha.pm' 80 0.0 3.0
'PM.Daniel' 'alpha.pm' 81 0.0 3.0
'PM.Daniel' 'alpha.pm' 84 0.0 3.0
'PM.Daniel' 'alpha.pm' 85 0.0 3.0
'PM.Daniel' 'alpha.pm' 86 0.0 3.0
'PM.Daniel' 'alpha.pm' 87 0.0 3.0
'PM.Daniel' 'alpha.pm' 88 0.0 3.0
'PM.Daniel' 'alpha.pm' 91 0.0 3.0
'PM.Daniel' 'alpha.pm' 92 0.0 3.0
'PM.Daniel' 'beta.pf' 175 0.0 1.0
'PM.Daniel' 'beta.pf' 176 0.0 1.0
'PM.Daniel' 'beta.pf' 177 0.0 1.0
'PM.Daniel' 'beta.pf' 178 0.0 1.0
'PM.Daniel' 'beta.pf' 179 0.0 1.0
'PM.Daniel' 'beta.pf' 182 0.0 1.0
'PM.Daniel' 'beta.pf' 183 0.0 1.0
'PM.Daniel' 'beta.pf' 184 0.0 1.0
'PM.Daniel' 'beta.pf' 185 0.0 1.0
'PM.Daniel' 'beta.pf' 186 0.0 1.0
'PM.Daniel' 'beta.pf' 189 0.0 1.0
'PM.Daniel' 'beta.pf' 190 0.0 1.0
'PM.Daniel' 'beta.pf' 191 0.0 1.0
'PM.Daniel' 'beta.pf' 192 0.0 1.0
'PM.Daniel' 'beta.pf' 193 0.0 1.0
'PM.Daniel' 'beta.pf' 196 0.0 1.0
'PM.Daniel' 'beta.pf' 197 0.0 1.0
'PM.Daniel' 'beta.pf' 198 0.0 1.0
'PM.Daniel' 'beta.pf' 199 0.0 1.0
'PM.Daniel' 'beta.pf' 200 0.0 1.0
'PM.Daniel' 'beta.pf' 203 0.0 1.0
'PM.Daniel' 'beta.pf' 204 0.0 1.0
'PM.Daniel' 'beta.pf' 205 0.0 1.0
'PM.Daniel' 'beta.pf' 206 0.0 1.0
'PM.Daniel' 'beta.pf' 207 0.0 1.0
'PM.Daniel' 'beta.pf' 210 0.0 1.0
'PM.Daniel' 'beta.pf' 211 0.0 1.0
'PM.Daniel' 'beta.pf' 212 0.0 1.0
'PM.Daniel' 'beta.pf' 213 0.0 1.0
'PM.Daniel' 'beta.pf' 214 0.0 1.0
'PM.Daniel' 'beta.pf' 217 0.0 1.0
'PM.Daniel' 'beta.pf' 218 0.0 1.0
'PM.Daniel' 'beta.pm' 3 2.0 3.0
'PM.Daniel' 'beta.pm' 4 2.0 3.0
'PM.Daniel' 'beta.pm' 7 2.0 3.0
'PM.Daniel' 'beta.pm' 8 2.0 3.0
'PM.Daniel' 'beta.pm' 9 2.0 3.0
'PM.Daniel' 'beta.pm' 10 2.0 3.0
'PM.Daniel' 'beta.pm' 11 2.0 3.0
'PM.Daniel' 'beta.pm' 14 2.0 3.0
'PM.Daniel' 'beta.pm' 15 2.0 3.0
'PM.Daniel' 'beta.pm' 16 2.0 3.0
'PM.Daniel' 'beta.pm' 17 2.0 3.0
'PM.Daniel' 'beta.pm' 18 2.0 3.0
'PM.Daniel' 'beta.pm' 21 2.0 3.0
'PM.Daniel' 'beta.pm' 22 2.0 3.0
'PM.Daniel' 'beta.pm' 23 2.0 3.0
'PM.Daniel' 'beta.pm' 24 2.0 3.0
'PM.Daniel' 'beta.pm' 25 2.0 3.0
'PM.Daniel' 'beta.pm' 28 2.0 3.0
'PM.Daniel' 'beta.pm' 29 2.0 3.0
'PM.Daniel' 'beta.pm' 30 2.0 3.0
'PM.Daniel' 'beta.pm' 31 2.0 3.0
'PM.Daniel' 'beta.pm' 32 2.0 3.0
'PM.Daniel' 'beta.pm' 35 2.0 3.0
'PM.Daniel' 'beta.pm' 36 2.0 3.0
'PM.Daniel' 'beta.pm' 37 2.0 3.0
'PM.Daniel' 'beta.pm' 38 2.0 3.0
'PM.Daniel' 'beta.pm' 39 2.0 3.0
'PM.Daniel' 'beta.pm' 42 2.0 3.0
'PM.Daniel' 'beta.pm' 43 2.0 3.0
'PM.Daniel' 'beta.pm' 44 2.0 3.0
'PM.Daniel' 'beta.pm' 45 2.0 3.0
'PM.Daniel' 'beta.pm' 46 2.0 3.0
'PM.Daniel' 'beta.pm' 49 2.0 3.0
'PM.Daniel' 'beta.pm' 50 2.0 3.0
'PM.Daniel' 'beta.pm' 51 2.0 3.0
'PM.Daniel' 'beta.pm' 52 2.0 3.0
'PM.Daniel' 'beta.pm' 53 2.0 3.0
'PM.Daniel' 'beta.pm' 56 2.0 3.0
'PM.Daniel' 'beta.pm' 57 2.0 3.0
'PM.Daniel' 'beta.pm' 58 2.0 3.0
'PM.Daniel' 'beta.pm' 59 2.0 3.0
'PM.Daniel' 'beta.pm' 60 2.0 3.0
'PM.Daniel' 'beta.pm' 63 2.0 3.0
'PM.Daniel' 'beta.pm' 64 2.0 3.0
'PM.Daniel' 'beta.pm' 65 2.0 3.0
'PM.Daniel' 'beta.pm' 66 2.0 3.0
'PM.Daniel' 'beta.pm' 67 2.0 3.0
'PM.Daniel' 'beta.pm' 70 2.0 3.0
'PM.Daniel' 'beta.pm' 71 2.0 3.0
'PM.Daniel' 'beta.pm' 72 2.0 3.0
'PM.Daniel' 'beta.pm' 73 2.0 3.0
'PM.Daniel' 'beta.pm' 74 2.0 3.0
'PM.Daniel' 'beta.pm' 77 2.0 3.0
'PM.Daniel' 'beta.pm' 78 2.0 3.0
'PM.Daniel' 'beta.pm' 79 2.0 3.0
'PM.Daniel' 'beta.pm' 80 2.0 3.0
'PM.Daniel' 'beta.pm' 81 2.0 3.0
'PM.Daniel' 'beta.pm' 84 2.0 3.0
'PM.Daniel' 'beta.pm' 85 2.0 3.0
'PM.Daniel' 'beta.pm' 86 2.0 3.0
'PM.Daniel' 'beta.pm' 87 2.0 3.0
'PM.Daniel' 'beta.pm' 88 2.0 3.0
'PM.Daniel' 'beta.pm' 91 2.0 3.0
'PM.Daniel' 'beta.pm' 92 2.0 3.0
'PM.Daniel' 'beta.pm' 93 2.0 3.0
'PM.Daniel' 'beta.pm' 94 2.0 3.0
'PM.Daniel' 'beta.pm' 95 2.0 3.0
'PM.Daniel' 'beta.pm' 98 2.0 3.0
'PM.Daniel' 'beta.pm' 99 2.0 3.0
'PM.Daniel' 'beta.pm' 100 2.0 3.0
'PM.Daniel' 'beta.pm' 101 2.0 3.0
'PM.Daniel' 'beta.pm' 102 2.0 3.0
'PM.Daniel' 'beta.pm' 105 2.0 3.0
'PM.Daniel' 'beta.pm' 106 2.0 3.0
'PM.Daniel' 'beta.pm' 107 2.0 3.0
'PM.Daniel' 'beta.pm' 108 2.0 3.0
'PM.Daniel' 'beta.pm' 109 2.0 3.0
'PM.Daniel' 'beta.pm' 112 2.0 3.0
'PM.Daniel' 'beta.pm' 113 2.0 3.0
'PM.Daniel' 'beta.pm' 114 2.0 3.0
'PM.Daniel' 'beta.pm' 115 2.0 3.0
'PM.Daniel' 'beta.pm' 116 2.0 3.0
'PM.Daniel' 'beta.pm' 119 2.0 3.0
'PM.Daniel' 'beta.pm' 120 2.0 3.0
'PM.Daniel' 'beta.pm' 121 2.0 3.0
'PM.Daniel' 'beta.pm' 123 2.0 3.0
'PM.Daniel' 'beta.pm' 126 2.0 3.0
'PM.Daniel' 'beta.pm' 127 2.0 3.0
'PM.Daniel' 'beta.pm' 128 2.0 3.0
'PM.Daniel' 'beta.pm' 129 2.0 3.0
'PM.Daniel' 'beta.pm' 130 2.0 3.0
'PM.Daniel' 'beta.pm' 133 2.0 3.0
'PM.Daniel' 'beta.pm' 134 2.0 3.0
'PM.Daniel' 'beta.pm' 135 2.0 3.0
'PM.Daniel' 'beta.pm' 136 2.0 3.0
'PM.Daniel' 'beta.pm' 137 2.0 3.0
'PM.Daniel' 'beta.pm' 140 2.0 3.0
'PM.Daniel' 'beta.pm' 141 2.0 3.0
'PM.Daniel' 'beta.pm' 142 2.0 3.0
'PM.Daniel' 'beta.pm' 143 2.0 3.0
'PM.Daniel' 'beta.pm' 144 2.0 3.0
'PM.Daniel' 'beta.pm' 147 2.0 3.0
'PM.Daniel' 'beta.pm' 148 2.0 3.0
'PM.Daniel' 'beta.pm' 149 2.0 3.0
'PM.Daniel' 'beta.pm' 150 2.0 3.0
'PM.Daniel' 'beta.pm' 151 2.0 3.0
'PM.Daniel' 'beta.pm' 154 2.0 3.0
'PM.Daniel' 'beta.pm' 155 2.0 3.0
'PM.Daniel' 'beta.pm' 156 2.0 3.0
'PM.Daniel' 'beta.pm' 157 2.0 3.0
'PM.Daniel' 'beta.pm' 158 2.0 3.0
'PM.Daniel' 'beta.pm' 161 2.0 3.0
'PM.Daniel' 'beta.pm' 162 2.0 3.0
'PM.Daniel' 'beta.pm' 163 2.0 3.0
'PM.Daniel' 'beta.pm' 164 2.0 3.0
'PM.Daniel' 'beta.pm' 165 2.0 3.0
'PM.Daniel' 'beta.pm' 168 2.0 3.0
'PM.Daniel' 'beta.pm' 169 2.0 3.0
'PM.Daniel' 'beta.pm' 170 2.0 3.0
'PM.Daniel' 'beta.pm' 171 2.0 3.0
'PM.Daniel' 'beta.pm' 172 2.0 3.0
'PM.Daniel' 'india.pf' 276 4.0 5.0
'PM.Daniel' 'india.pf' 277 4.0 5.0
'PM.Daniel' 'india.pf' 280 4.0 5.0
'PM.Daniel' 'india.pf' 281 4.0 5.0
'PM.Daniel' 'india.pf' 282 4.0 5.0
'PM.Daniel' 'india.pf' 283 4.0 5.0
'PM.Daniel' 'india.pf' 284 4.0 5.0
'PM.Daniel' 'india.pf' 287 4.0 5.0
'PM.Daniel' 'india.pf' 288 4.0 5.0
'PM.Daniel' 'india.pf' 289 4.0 5.0
'PM.Daniel' 'india.pf' 290 4.0 5.0
'PM.Daniel' 'india.pf' 291 4.0 5.0
'PM.Daniel' 'india.pf' 294 4.0 5.0
'PM.Daniel' 'india.pf' 295 4.0 5.0
'PM.Daniel' 'india.pf' 296 4.0 5.0
'PM.Daniel' 'india.pf' 297 4.0 5.0
'PM.Daniel' 'india.pf' 298 4.0 5.0
'PM.Daniel' 'india.pf' 301 4.0 5.0
'PM.Daniel' 'india.pf' 302 4.0 5.0
'PM.Daniel' 'india.pf' 303 4.0 5.0
'PM.Daniel' 'india.pf' 304 4.0 5.0
'PM.Daniel' 'india.pf' 305 4.0 5.0
'PM.Daniel' 'india.pm' 3 2.0 5.0
'PM.Daniel' 'india.pm' 4 2.0 5.0
'PM.Daniel' 'india.pm' 7 2.0 5.0
'PM.Daniel' 'india.pm' 8 2.0 5.0
'PM.Daniel' 'india.pm' 9 2.0 5.0
'PM.Daniel' 'india.pm' 10 2.0 5.0
'PM.Daniel' 'india.pm' 11 2.0 5.0
'PM.Daniel' 'india.pm' 14 2.0 5.0
'PM.Daniel' 'india.pm' 15 2.0 5.0
'PM.Daniel' 'india.pm' 16 2.0 5.0
'PM.Daniel' 'india.pm' 17 2.0 5.0
'PM.Daniel' 'india.pm' 18 2.0 5.0
'PM.Daniel' 'india.pm' 21 2.0 5.0
'PM.Daniel' 'india.pm' 22 2.0 5.0
'PM.Daniel' 'india.pm' 23 2.0 5.0
'PM.Daniel' 'india.pm' 24 2.0 5.0
'PM.Daniel' 'india.pm' 25 2.0 5.0
'PM.Daniel' 'india.pm' 28 2.0 5.0
'PM.Daniel' 'india.pm' 29 2.0 5.0
'PM.Daniel' 'india.pm' 30 2.0 5.0
'PM.Daniel' 'india.pm' 31 2.0 5.0
'PM.Daniel' 'india.pm' 32 2.0 5.0
'PM.Daniel' 'india.pm' 35 2.0 5.0
'PM.Daniel' 'india.pm' 36 2.0 5.0
'PM.Daniel' 'india.pm' 37 2.0 5.0
'PM.Daniel' 'india.pm' 38 2.0 5.0
'PM.Daniel' 'india.pm' 39 2.0 5.0
'PM.Daniel' 'india.pm' 42 2.0 5.0
'PM.Daniel' 'india.pm' 43 2.0 5.0
'PM.Daniel' 'india.pm' 44 2.0 5.0
'PM.Daniel' 'india.pm' 45 2.0 5.0
'PM.Daniel' 'india.pm' 46 2.0 5.0
'PM.Daniel' 'india.pm' 49 2.0 5.0
'PM.Daniel' 'india.pm' 50 2.0 5.0
'PM.Daniel' 'india.pm' 51 2.0 5.0
'PM.Daniel' 'india.pm' 52 2.0 5.0
'PM.Daniel' 'india.pm' 53 2.0 5.0
'PM.Daniel' 'india.pm' 56 2.0 5.0
'PM.Daniel' 'india.pm' 57 2.0 5.0
'PM.Daniel' 'india.pm' 58 2.0 5.0
'PM.Daniel' 'india.pm' 59 2.0 5.0
'PM.Daniel' 'india.pm' 60 2.0 5.0
'PM.Daniel' 'india.pm' 63 2.0 5.0
'PM.Daniel' 'india.pm' 64 2.0 5.0
'PM.Daniel' 'india.pm' 65 2.0 5.0
'PM.Daniel' 'india.pm' 66 2.0 5.0
'PM.Daniel' 'india.pm' 67 2.0 5.0
'PM.Daniel' 'india.pm' 70 2.0 5.0
'PM.Daniel' 'india.pm' 71 2.0 5.0
'PM.Daniel' 'india.pm' 72 2.0 5.0
'PM.Daniel' 'india.pm' 73 2.0 5.0
'PM.Daniel' 'india.pm' 74 2.0 5.0
'PM.Daniel' 'india.pm' 77 2.0 5.0
'PM.Daniel' 'india.pm' 78 2.0 5.0
'PM.Daniel' 'india.pm' 79 2.0 5.0
'PM.Daniel' 'india.pm' 80 2.0 5.0
'PM.Daniel' 'india.pm' 81 2.0 5.0
'PM.Daniel' 'india.pm' 84 2.0 5.0
'PM.Daniel' 'india.pm' 85 2.0 5.0
'PM.Daniel' 'india.pm' 86 2.0 5.0
'PM.Daniel' 'india.pm' 87 2.0 5.0
'PM.Daniel' 'india.pm' 88 2.0 5.0
'PM.Daniel' 'india.pm' 91 2.0 5.0
'PM.Daniel' 'india.pm' 92 2.0 5.0
'PM.Daniel' 'india.pm' 93 2.0 5.0
'PM.Daniel' 'india.pm' 94 2.0 5.0
'PM.Daniel' 'india.pm' 95 2.0 5.0
'PM.Daniel' 'india.pm' 98 2.0 5.0
'PM.Daniel' 'india.pm' 99 2.0 5.0
'PM.Daniel' 'india.pm' 100 2.0 5.0
'PM.Daniel' 'india.pm' 101 2.0 5.0
'PM.Daniel' 'india.pm' 102 2.0 5.0
'PM.Daniel' 'india.pm' 105 2.0 5.0
'PM.Daniel' 'india.pm' 106 2.0 5.0
'PM.Daniel' 'india.pm' 107 2.0 5.0
'PM.Daniel' 'india.pm' 108 2.0 5.0
'PM.Daniel' 'india.pm' 109 2.0 5.0
'PM.Daniel' 'india.pm' 112 2.0 5.0
'PM.Daniel' 'india.pm' 113 2.0 5.0
'PM.Daniel' 'india.pm' 114 2.0 5.0
'PM.Daniel' 'india.pm' 115 2.0 5.0
'PM.Daniel' 'india.pm' 116 2.0 5.0
'PM.Daniel' 'india.pm' 119 2.0 5.0
'PM.Daniel' 'india.pm' 120 2.0 5.0
'PM.Daniel' 'india.pm' 121 2.0 5.0
'PM.Daniel' 'india.pm' 123 2.0 5.0
'PM.Daniel' 'india.pm' 126 2.0 5.0
'PM.Daniel' 'india.pm' 127 2.0 5.0
'PM.Daniel' 'india.pm' 128 2.0 5.0
'PM.Daniel' 'india.pm' 129 2.0 5.0
'PM.Daniel' 'india.pm' 130 2.0 5.0
'PM.Daniel' 'india.pm' 133 2.0 5.0
'PM.Daniel' 'india.pm' 134 2.0 5.0
'PM.Daniel' 'india.pm' 135 2.0 5.0
'PM.Daniel' 'india.pm' 136 2.0 5.0
'PM.Daniel' 'india.pm' 137 2.0 5.0
'PM.Daniel' 'india.pm' 140 2.0 5.0
'PM.Daniel' 'india.pm' 141 2.0 5.0
'PM.Daniel' 'india.pm' 142 2.0 5.0
'PM.Daniel' 'india.pm' 143 2.0 5.0
'PM.Daniel' 'india.pm' 144 2.0 5.0
'PM.Daniel' 'india.pm' 147 2.0 5.0
'PM.Daniel' 'india.pm' 148 2.0 5.0
'PM.Daniel' 'india.pm' 149 2.0 5.0
'PM.Daniel' 'india.pm' 150 2.0 5.0
'PM.Daniel' 'india.pm' 151 2.0 5.0
'PM.Daniel' 'india.pm' 154 2.0 5.0
'PM.Daniel' 'india.pm' 155 2.0 5.0
'PM.Daniel' 'india.pm' 156 2.0 5.0
'PM.Daniel' 'india.pm' 157 2.0 5.0
'PM.Daniel' 'india.pm' 158 2.0 5.0
'PM.Daniel' 'india.pm' 161 2.0 5.0
'PM.Daniel' 'india.pm' 162 2.0 5.0
'PM.Daniel' 'india.pm' 163 2.0 5.0
'PM.Daniel' 'india.pm' 164 2.0 5.0
'PM.Daniel' 'india.pm' 165 2.0 5.0
'PM.Daniel' 'india.pm' 168 2.0 5.0
'PM.Daniel' 'india.pm' 169 2.0 5.0
'PM.Daniel' 'india.pm' 170 2.0 5.0
'PM.Daniel' 'india.pm' 171 2.0 5.0
'PM.Daniel' 'india.pm' 172 2.0 5.0
'PM.Daniel' 'india.pm' 175 2.0 5.0
'PM.Daniel' 'india.pm' 176 2.0 5.0
'PM.Daniel' 'india.pm' 177 2.0 5.0
'PM.Daniel' 'india.pm' 178 2.0 5.0
'PM.Daniel' 'india.pm' 179 2.0 5.0
'PM.Daniel' 'india.pm' 182 2.0 5.0
'PM.Daniel' 'india.pm' 183 2.0 5.0
'PM.Daniel' 'india.pm' 184 2.0 5.0
'PM.Daniel' 'india.pm' 185 2.0 5.0
'PM.Daniel' 'india.pm' 186 2.0 5.0
'PM.Daniel' 'india.pm' 189 2.0 5.0
'PM.Daniel' 'india.pm' 190 2.0 5.0
'PM.Daniel' 'india.pm' 191 2.0 5.0
'PM.Daniel' 'india.pm' 192 2.0 5.0
'PM.Daniel' 'india.pm' 193 2.0 5.0
'PM.Daniel' 'india.pm' 196 2.0 5.0
'PM.Daniel' 'india.pm' 197 2.0 5.0
'PM.Daniel' 'india.pm' 198 2.0 5.0
'PM.Daniel' 'india.pm' 199 2.0 5.0
'PM.Daniel' 'india.pm' 200 2.0 5.0
'PM.Daniel' 'india.pm' 203 2.0 5.0
'PM.Daniel' 'india.pm' 204 2.0 5.0
'PM.Daniel' 'india.pm' 205 2.0 5.0
'PM.Daniel' 'india.pm' 206 2.0 5.0
'PM.Daniel' 'india.pm' 207 2.0 5.0
'PM.Daniel' 'india.pm' 210 2.0 5.0
'PM.Daniel' 'india.pm' 211 2.0 5.0
'PM.Daniel' 'india.pm' 212 2.0 5.0
'PM.Daniel' 'india.pm' 213 2.0 5.0
'PM.Daniel' 'india.pm' 214 2.0 5.0
'PM.Daniel' 'india.pm' 217 2.0 5.0
'PM.Daniel' 'india.pm' 218 2.0 5.0
'PM.Daniel' 'india.pm' 219 2.0 5.0
'PM.Daniel' 'india.pm' 220 2.0 5.0
'PM.Daniel' 'india.pm' 221 2.0 5.0
'PM.Daniel' 'india.pm' 224 2.0 5.0
'PM.Daniel' 'india.pm' 225 2.0 5.0
'PM.Daniel' 'india.pm' 226 2.0 5.0
'PM.Daniel' 'india.pm' 227 2.0 5.0
'PM.Daniel' 'india.pm' 228 2.0 5.0
'PM.Daniel' 'india.pm' 231 2.0 5.0
'PM.Daniel' 'india.pm' 232 2.0 5.0
'PM.Daniel' 'india.pm' 233 2.0 5.0
'PM.Daniel' 'india.pm' 234 2.0 5.0
'PM.Daniel' 'india.pm' 235 2.0 5.0
'PM.Daniel' 'india.pm' 238 2.0 5.0
'PM.Daniel' 'india.pm' 239 2.0 5.0
'PM.Daniel' 'india.pm' 240 2.0 5.0
'PM.Daniel' 'india.pm' 241 2.0 5.0
'PM.Daniel' 'india.pm' 242 2.0 5.0
'PM.Daniel' 'india.pm' 245 2.0 5.0
'PM.Daniel' 'india.pm' 246 2.0 5.0
'PM.Daniel' 'india.pm' 247 2.0 5.0
'PM.Daniel' 'india.pm' 248 2.0 5.0
'PM.Daniel' 'india.pm' 249 2.0 5.0
'PM.Daniel' 'india.pm' 252 2.0 5.0
'PM.Daniel' 'india.pm' 253 2.0 5.0
'PM.Daniel' 'india.pm' 254 2.0 5.0
'PM.Daniel' 'india.pm' 255 2.0 5.0
'PM.Daniel' 'india.pm' 256 2.0 5.0
'PM.Daniel' 'india.pm' 259 2.0 5.0
'PM.Daniel' 'india.pm' 260 2.0 5.0
'PM.Daniel' 'india.pm' 261 2.0 5.0
'PM.Daniel' 'india.pm' 262 2.0 5.0
'PM.Daniel' 'india.pm' 263 2.0 5.0
'PM.Daniel' 'india.pm' 266 2.0 5.0
'PM.Daniel' 'india.pm' 267 2.0 5.0
'PM.Daniel' 'india.pm' 268 2.0 5.0
'PM.Daniel' 'india.pm' 269 2.0 5.0
'PM.Daniel' 'india.pm' 270 2.0 5.0
'PM.Daniel' 'india.pm' 273 2.0 5.0
'PM.Daniel' 'india.pm' 274 2.0 5.0
'PM.Daniel' 'india.pm' 275 2.0 5.0
'PM.Daniel' 'juliet.e' 42 2.0 3.0
'PM.Daniel' 'juliet.e' 43 2.0 3.0
'PM.Daniel' 'juliet.e' 44 2.0 3.0
'PM.Daniel' 'juliet.e' 45 2.0 3.0
'PM.Daniel' 'juliet.e' 46 2.0 3.0
'PM.Daniel' 'juliet.e' 49 2.0 3.0
'PM.Daniel' 'juliet.e' 50 2.0 3.0
'PM.Daniel' 'juliet.e' 51 2.0 3.0
'PM.Daniel' 'juliet.e' 52 2.0 3.0
'PM.Daniel' 'juliet.e' 53 2.0 3.0
'PM.Daniel' 'juliet.e' 56 2.0 3.0
'PM.Daniel' 'juliet.e' 57 2.0 3.0
'PM.Daniel' 'juliet.e' 58 2.0 3.0
'PM.Daniel' 'juliet.e' 59 2.0 3.0
'PM.Daniel' 'kilo.e' 63 5.0 5.0
'PM.Daniel' 'kilo.e' 64 5.0 5.0
'PM.Daniel' 'kilo.e' 65 5.0 5.0
'PM.Daniel' 'kilo.e' 66 5.0 5.0
'PM.Daniel' 'kilo.e' 67 5.0 5.0
'PM.Daniel' 'kilo.e' 70 5.0 5.0
'PM.Daniel' 'kilo.e' 71 5.0 5.0
'PM.Daniel' 'kilo.e' 72 5.0 5.0
'PM.Daniel' 'kilo.e' 73 5.0 5.0
'PM.Daniel' 'kilo.e' 74 5.0 5.0
'PM.Daniel' 'kilo.e' 77 5.0 5.0
'PM.Daniel' 'kilo.e' 78 5.0 5.0
'PM.Daniel' 'kilo.e' 79 5.0 5.0
'PM.Daniel' 'kilo.e' 80 5.0 5.0
'PM.Daniel' 'kilo.e' 81 5.0 5.0
'PM.Daniel' 'kilo.e' 84 5.0 5.0
'PM.Daniel' 'mike.e' 101 5.0 6.0
'PM.Daniel' 'mike.e' 102 5.0 6.0
'PM.Daniel' 'mike.e' 105 5.0 6.0
'PM.Daniel' 'mike.e' 106 5.0 6.0
'PM.Daniel' 'mike.e' 107 5.0 6.0
'PM.Daniel' 'mike.e' 108 5.0 6.0
'PM.Daniel' 'mike.e' 109 5.0 6.0
'PM.Daniel' 'november.e' 147 2.0 3.0
'PM.Daniel' 'november.e' 148 2.0 3.0
'PM.Daniel' 'november.e' 149 2.0 3.0
'PM.Daniel' 'november.e' 150 2.0 3.0
'PM.Daniel' 'november.e' 151 2.0 3.0
'PM.Daniel' 'november.e' 154 2.0 3.0
'PM.Daniel' 'november.e' 155 2.0 3.0
'PM.Daniel' 'november.e' 156 2.0 3.0
'PM.Daniel' 'november.e' 157 2.0 3.0
'PM.Daniel' 'november.e' 158 2.0 3.0
'PM.Daniel' 'november.e' 161 2.0 3.0
'PM.Daniel' 'november.e' 162 2.0 3.0
'PM.Daniel' 'november.e' 163 2.0 3.0
'PM.Daniel' 'november.e' 164 2.0 3.0
'PM.Daniel' 'november.e' 165 2.0 3.0
'PM.Daniel' 'oscar.e' 177 5.0 6.0
'PM.Daniel' 'oscar.e' 178 5.0 6.0
'PM.Daniel' 'oscar.e' 179 5.0 6.0
'PM.Daniel' 'oscar.e' 182 5.0 6.0
'PM.Daniel' 'oscar.e' 183 5.0 6.0
'PM.Daniel' 'oscar.e' 184 5.0 6.0
'PM.Daniel' 'oscar.e' 185 5.0 6.0
'PM.Daniel' 'oscar.e' 186 5.0 6.0
'PM.Daniel' 'oscar.e' 189 5.0 6.0
'PM.Daniel' 'oscar.e' 190 5.0 6.0
'PM.Daniel' 'oscar.e' 191 5.0 6.0
'PM.Daniel' 'oscar.pe' 177 5.0 6.0
'PM.Daniel' 'oscar.pe' 178 5.0 6.0
'PM.Daniel' 'oscar.pe' 179 5.0 6.0
'PM.Daniel' 'oscar.pe' 182 5.0 6.0
'PM.Daniel' 'oscar.pe' 183 5.0 6.0
'PM.Daniel' 'oscar.pe' 184 5.0 6.0
'PM.Daniel' 'oscar.pe' 185 5.0 6.0
'PM.Daniel' 'oscar.pe' 186 5.0 6.0
'PM.Daniel' 'oscar.pe' 189 5.0 6.0
'PM.Daniel' 'oscar.pe' 190 5.0 6.0
'PM.Daniel' 'oscar.pe' 191 5.0 6.0
'PM.Daniel' 'oscar.pf' 366 1.0 2.0
'PM.Daniel' 'oscar.pf' 367 1.0 2.0
'PM.Daniel' 'oscar.pf' 368 1.0 2.0
'PM.Daniel' 'oscar.pf' 371 1.0 2.0
'PM.Daniel' 'oscar.pf' 372 1.0 2.0
'PM.Daniel' 'oscar.pf' 373 1.0 2.0
'PM.Daniel' 'oscar.pf' 374 1.0 2.0
'PM.Daniel' 'oscar.pf' 375 1.0 2.0
'PM.Daniel' 'oscar.pf' 378 1.0 2.0
'PM.Daniel' 'oscar.pf' 379 1.0 2.0
'PM.Daniel' 'oscar.pf' 380 1.0 2.0
'PM.Daniel' 'oscar.pf' 381 1.0 2.0
'PM.Daniel' 'oscar.pf' 382 1.0 2.0
'PM.Daniel' 'oscar.pf' 385 1.0 2.0
'PM.Daniel' 'oscar.pf' 386 1.0 2.0
'PM.Daniel' 'oscar.pf' 387 1.0 2.0
'PM.Daniel' 'oscar.pf' 388 1.0 2.0
'PM.Daniel' 'oscar.pf' 389 1.0 2.0
'PM.Daniel' 'oscar.pf' 392 1.0 2.0
'PM.Daniel' 'oscar.pf' 393 1.0 2.0
'PM.Daniel' 'oscar.pf' 394 1.0 2.0
'PM.Daniel' 'oscar.pf' 395 1.0 2.0
'PM.Daniel' 'oscar.pf' 396 1.0 2.0
'PM.Daniel' 'oscar.pm' 192 2.0 3.0
'PM.Daniel' 'oscar.pm' 193 2.0 3.0
'PM.Daniel' 'oscar.pm' 196 2.0 3.0
'PM.Daniel' 'oscar.pm' 197 2.0 3.0
'PM.Daniel' 'oscar.pm' 198 2.0 3.0
'PM.Daniel' 'oscar.pm' 199 2.0 3.0
'PM.Daniel' 'oscar.pm' 200 2.0 3.0
'PM.Daniel' 'oscar.pm' 203 2.0 3.0
'PM.Daniel' 'oscar.pm' 204 2.0 3.0
'PM.Daniel' 'oscar.pm' 205 2.0 3.0
'PM.Daniel' 'oscar.pm' 206 2.0 3.0
'PM.Daniel' 'oscar.pm' 207 2.0 3.0
'PM.Daniel' 'oscar.pm' 210 2.0 3.0
'PM.Daniel' 'oscar.pm' 211 2.0 3.0
'PM.Daniel' 'oscar.pm' 212 2.0 3.0
'PM.Daniel' 'oscar.pm' 213 2.0 3.0
'PM.Daniel' 'oscar.pm' 214 2.0 3.0
'PM.Daniel' 'oscar.pm' 217 2.0 3.0
'PM.Daniel' 'oscar.pm' 218 2.0 3.0
'PM.Daniel' 'oscar.pm' 219 2.0 3.0
'PM.Daniel' 'oscar.pm' 220 2.0 3.0
'PM.Daniel' 'oscar.pm' 221 2.0 3.0
'PM.Daniel' 'oscar.pm' 224 2.0 3.0
'PM.Daniel' 'oscar.pm' 225 2.0 3.0
'PM.Daniel' 'oscar.pm' 226 2.0 3.0
'PM.Daniel' 'oscar.pm' 227 2.0 3.0
'PM.Daniel' 'oscar.pm' 228 2.0 3.0
'PM.Daniel' 'oscar.pm' 231 2.0 3.0
'PM.Daniel' 'oscar.pm' 232 2.0 3.0
'PM.Daniel' 'oscar.pm' 233 2.0 3.0
'PM.Daniel' 'oscar.pm' 234 2.0 3.0
'PM.Daniel' 'oscar.pm' 235 2.0 3.0
'PM.Daniel' 'oscar.pm' 238 2.0 3.0
'PM.Daniel' 'oscar.pm' 239 2.0 3.0
'PM.Daniel' 'oscar.pm' 240 2.0 3.0
'PM.Daniel' 'oscar.pm' 241 2.0 3.0
'PM.Daniel' 'oscar.pm' 242 2.0 3.0
'PM.Daniel' 'oscar.pm' 245 2.0 3.0
'PM.Daniel' 'oscar.pm' 246 2.0 3.0
'PM.Daniel' 'oscar.pm' 247 2.0 3.0
'PM.Daniel' 'oscar.pm' 248 2.0 3.0
'PM.Daniel' 'oscar.pm' 249 2.0 3.0
'PM.Daniel' 'oscar.pm' 252 2.0 3.0
'PM.Daniel' 'oscar.pm' 253 2.0 3.0
'PM.Daniel' 'oscar.pm' 254 2.0 3.0
'PM.Daniel' 'oscar.pm' 255 2.0 3.0
'PM.Daniel' 'oscar.pm' 256 2.0 3.0
'PM.Daniel' 'oscar.pm' 259 2.0 3.0
'PM.Daniel' 'oscar.pm' 260 2.0 3.0
'PM.Daniel' 'oscar.pm' 261 2.0 3.0
'PM.Daniel' 'oscar.pm' 262 2.0 3.0
'PM.Daniel' 'oscar.pm' 263 2.0 3.0
'PM.Daniel' 'oscar.pm' 266 2.0 3.0
'PM.Daniel' 'oscar.pm' 267 2.0 3.0
'PM.Daniel' 'oscar.pm' 268 2.0 3.0
'PM.Daniel' 'oscar.pm' 269 2.0 3.0
'PM.Daniel' 'oscar.pm' 270 2.0 3.0
'PM.Daniel' 'oscar.pm' 273 2.0 3.0
'PM.Daniel' 'oscar.pm' 274 2.0 3.0
'PM.Daniel' 'oscar.pm' 275 2.0 3.0
'PM.Daniel' 'oscar.pm' 276 2.0 3.0
'PM.Daniel' 'oscar.pm' 277 2.0 3.0
'PM.Daniel' 'oscar.pm' 280 2.0 3.0
'PM.Daniel' 'oscar.pm' 281 2.0 3.0
'PM.Daniel' 'oscar.pm' 282 2.0 3.0
'PM.Daniel' 'oscar.pm' 283 2.0 3.0
'PM.Daniel' 'oscar.pm' 284 2.0 3.0
'PM.Daniel' 'oscar.pm' 287 2.0 3.0
'PM.Daniel' 'oscar.pm' 288 2.0 3.0
'PM.Daniel' 'oscar.pm' 289 2.0 3.0
'PM.Daniel' 'oscar.pm' 290 2.0 3.0
'PM.Daniel' 'oscar.pm' 291 2.0 3.0
'PM.Daniel' 'oscar.pm' 294 2.0 3.0
'PM.Daniel' 'oscar.pm' 295 2.0 3.0
'PM.Daniel' 'oscar.pm' 296 2.0 3.0
'PM.Daniel' 'oscar.pm' 297 2.0 3.0
'PM.Daniel' 'oscar.pm' 298 2.0 3.0
'PM.Daniel' 'oscar.pm' 301 2.0 3.0
'PM.Daniel' 'oscar.pm' 302 2.0 3.0
'PM.Daniel' 'oscar.pm' 303 2.0 3.0
'PM.Daniel' 'oscar.pm' 304 2.0 3.0
'PM.Daniel' 'oscar.pm' 305 2.0 3.0
'PM.Daniel' 'oscar.pm' 308 2.0 3.0
'PM.Daniel' 'oscar.pm' 309 2.0 3.0
'PM.Daniel' 'oscar.pm' 310 2.0 3.0
'PM.Daniel' 'oscar.pm' 311 2.0 3.0
'PM.Daniel' 'oscar.pm' 312 2.0 3.0
'PM.Daniel' 'oscar.pm' 315 2.0 3.0
'PM.Daniel' 'oscar.pm' 316 2.0 3.0
'PM.Daniel' 'oscar.pm' 317 2.0 3.0
'PM.Daniel' 'oscar.pm' 318 2.0 3.0
'PM.Daniel' 'oscar.pm' 319 2.0 3.0
'PM.Daniel' 'oscar.pm' 322 2.0 3.0
'PM.Daniel' 'oscar.pm' 323 2.0 3.0
'PM.Daniel' 'oscar.pm' 324 2.0 3.0
'PM.Daniel' 'oscar.pm' 325 2.0 3.0
'PM.Daniel' 'oscar.pm' 326 2.0 3.0
'PM.Daniel' 'oscar.pm' 329 2.0 3.0
'PM.Daniel' 'oscar.pm' 330 2.0 3.0
'PM.Daniel' 'oscar.pm' 331 2.0 3.0
'PM.Daniel' 'oscar.pm' 332 2.0 3.0
'PM.Daniel' 'oscar.pm' 333 2.0 3.0
'PM.Daniel' 'oscar.pm' 336 2.0 3.0
'PM.Daniel' 'oscar.pm' 337 2.0 3.0
'PM.Daniel' 'oscar.pm' 338 2.0 3.0
'PM.Daniel' 'oscar.pm' 339 2.0 3.0
'PM.Daniel' 'oscar.pm' 340 2.0 3.0
'PM.Daniel' 'oscar.pm' 343 2.0 3.0
'PM.Daniel' 'oscar.pm' 344 2.0 3.0
'PM.Daniel' 'oscar.pm' 345 2.0 3.0
'PM.Daniel' 'oscar.pm' 346 2.0 3.0
'PM.Daniel' 'oscar.pm' 347 2.0 3.0
'PM.Daniel' 'oscar.pm' 350 2.0 3.0
'PM.Daniel' 'oscar.pm' 351 2.0 3.0
'PM.Daniel' 'oscar.pm' 352 2.0 3.0
'PM.Daniel' 'oscar.pm' 353 2.0 3.0
'PM.Daniel' 'oscar.pm' 354 2.0 3.0
'PM.Daniel' 'oscar.pm' 357 2.0 3.0
'PM.Daniel' 'oscar.pm' 358 2.0 3.0
'PM.Daniel' 'oscar.pm' 359 2.0 3.0
'PM.Daniel' 'oscar.pm' 360 2.0 3.0
'PM.Daniel' 'oscar.pm' 361 2.0 3.0
'PM.Daniel' 'oscar.pm' 364 2.0 3.0
'PM.Daniel' 'oscar.pm' 365 2.0 3.0
;

param:
EBID: EBN EBS EBE EBL EBU :=
1 'PM.Daniel' 2 367 0 24
;

param:
PNAME: PERS PERE :=
'Jan.25' 1 16
'Feb.25' 17 45
'Mar.25' 46 76
'Apr.25' 77 105
'May.25' 106 139
'Jun.25' 140 170
'Jul.25' 171 199
'Aug.25' 200 230
'Sep.25' 231 259
'Oct.25' 260 289
'Nov.25' 290 317
'Dec.25' 318 346
;

param:
EXPPER: PBL PBU :=
'PM.Daniel' 'Jan.25' 0 720
'PM.Daniel' 'Feb.25' 0 720
'PM.Daniel' 'Mar.25' 0 720
'PM.Daniel' 'Apr.25' 0 720
'PM.Daniel' 'May.25' 0 720
'PM.Daniel' 'Jun.25' 0 720
'PM.Daniel' 'Jul.25' 0 720
'PM.Daniel' 'Aug.25' 0 720
'PM.Daniel' 'Sep.25' 0 720
'PM.Daniel' 'Oct.25' 0 720
'PM.Daniel' 'Nov.25' 0 720
'PM.Daniel' 'Dec.25' 0 720
;

